c File: data_files/evolved_graphs/g3840.col
c
c Auto generated graph
c
p edge 100 2423
e 1 2
e 1 3
e 1 5
e 1 18
e 1 32
e 1 37
e 1 41
e 1 84
e 1 100
e 2 9
e 2 37
e 2 38
e 2 40
e 2 42
e 2 74
e 2 83
e 2 87
e 3 13
e 3 76
e 4 5
e 4 45
e 4 54
e 5 7
e 5 8
e 5 9
e 5 10
e 5 12
e 5 18
e 5 31
e 5 38
e 5 61
e 5 63
e 5 68
e 5 69
e 5 70
e 5 71
e 5 72
e 5 75
e 5 76
e 5 77
e 5 79
e 5 81
e 5 83
e 5 87
e 5 88
e 5 91
e 5 97
e 6 9
e 6 10
e 6 11
e 6 12
e 6 13
e 6 17
e 6 20
e 6 27
e 6 44
e 6 48
e 6 63
e 6 64
e 6 65
e 6 75
e 6 76
e 6 84
e 6 89
e 6 91
e 6 92
e 6 94
e 6 95
e 6 96
e 7 9
e 7 10
e 7 11
e 7 12
e 7 23
e 7 28
e 7 46
e 7 61
e 7 65
e 7 67
e 7 73
e 7 75
e 7 76
e 7 77
e 7 81
e 7 83
e 7 85
e 7 86
e 7 88
e 7 93
e 7 96
e 7 98
e 7 99
e 7 100
e 8 10
e 8 17
e 8 20
e 8 29
e 8 46
e 8 58
e 8 62
e 8 63
e 8 64
e 8 69
e 8 71
e 8 72
e 8 74
e 8 79
e 8 80
e 8 83
e 8 84
e 8 86
e 8 87
e 8 90
e 8 92
e 8 95
e 8 97
e 9 11
e 9 14
e 9 16
e 9 50
e 9 56
e 9 61
e 9 63
e 9 66
e 9 72
e 9 77
e 9 83
e 9 84
e 9 86
e 9 90
e 9 91
e 9 92
e 9 94
e 9 97
e 9 98
e 10 11
e 10 16
e 10 19
e 10 25
e 10 33
e 10 34
e 10 37
e 10 45
e 10 47
e 10 62
e 10 67
e 10 69
e 10 71
e 10 73
e 10 74
e 10 78
e 10 80
e 10 81
e 10 82
e 10 84
e 10 85
e 10 88
e 10 90
e 11 12
e 11 31
e 11 33
e 11 62
e 11 64
e 11 65
e 11 67
e 11 68
e 11 71
e 11 74
e 11 76
e 11 77
e 11 86
e 11 88
e 11 91
e 11 92
e 11 96
e 11 99
e 11 100
e 12 15
e 12 28
e 12 72
e 12 73
e 12 78
e 12 79
e 12 81
e 12 91
e 12 93
e 12 94
e 12 95
e 12 99
e 13 15
e 13 16
e 13 17
e 13 18
e 13 19
e 13 20
e 13 22
e 13 24
e 13 26
e 13 27
e 13 28
e 13 29
e 13 30
e 13 31
e 13 33
e 13 34
e 13 35
e 13 36
e 13 38
e 13 40
e 13 41
e 13 42
e 13 44
e 13 45
e 13 46
e 13 47
e 13 51
e 13 53
e 13 55
e 13 56
e 13 58
e 13 59
e 13 60
e 13 63
e 13 65
e 13 66
e 13 67
e 13 70
e 13 71
e 13 73
e 13 75
e 13 83
e 13 86
e 13 90
e 13 91
e 13 92
e 13 93
e 13 95
e 13 98
e 13 100
e 14 15
e 14 17
e 14 19
e 14 20
e 14 23
e 14 27
e 14 28
e 14 30
e 14 31
e 14 32
e 14 33
e 14 34
e 14 37
e 14 38
e 14 39
e 14 40
e 14 43
e 14 44
e 14 46
e 14 48
e 14 51
e 14 52
e 14 53
e 14 56
e 14 57
e 14 58
e 14 59
e 14 64
e 14 67
e 14 68
e 14 69
e 14 72
e 14 73
e 14 74
e 14 76
e 14 77
e 14 78
e 14 79
e 14 84
e 14 85
e 14 88
e 14 93
e 14 97
e 14 98
e 14 100
e 15 16
e 15 17
e 15 18
e 15 19
e 15 20
e 15 21
e 15 22
e 15 23
e 15 24
e 15 25
e 15 28
e 15 29
e 15 30
e 15 33
e 15 36
e 15 37
e 15 39
e 15 40
e 15 44
e 15 45
e 15 47
e 15 48
e 15 49
e 15 50
e 15 51
e 15 53
e 15 54
e 15 56
e 15 57
e 15 62
e 15 63
e 15 64
e 15 65
e 15 68
e 15 72
e 15 74
e 15 75
e 15 77
e 15 78
e 15 79
e 15 80
e 15 83
e 15 85
e 15 89
e 15 90
e 15 92
e 15 93
e 15 96
e 15 97
e 15 100
e 16 17
e 16 19
e 16 20
e 16 21
e 16 24
e 16 25
e 16 26
e 16 28
e 16 29
e 16 30
e 16 34
e 16 36
e 16 37
e 16 39
e 16 40
e 16 42
e 16 45
e 16 47
e 16 50
e 16 52
e 16 55
e 16 56
e 16 57
e 16 59
e 16 61
e 16 63
e 16 68
e 16 72
e 16 77
e 16 78
e 16 81
e 16 84
e 16 85
e 16 87
e 16 88
e 16 89
e 16 90
e 16 91
e 16 93
e 16 95
e 16 96
e 16 98
e 16 100
e 17 18
e 17 23
e 17 24
e 17 25
e 17 26
e 17 27
e 17 29
e 17 31
e 17 34
e 17 35
e 17 36
e 17 39
e 17 40
e 17 41
e 17 43
e 17 45
e 17 46
e 17 47
e 17 48
e 17 50
e 17 51
e 17 53
e 17 54
e 17 55
e 17 56
e 17 57
e 17 60
e 17 61
e 17 63
e 17 64
e 17 65
e 17 66
e 17 67
e 17 68
e 17 73
e 17 74
e 17 76
e 17 77
e 17 79
e 17 80
e 17 81
e 17 82
e 17 83
e 17 85
e 17 91
e 17 92
e 17 96
e 17 99
e 17 100
e 18 20
e 18 21
e 18 22
e 18 23
e 18 24
e 18 27
e 18 28
e 18 29
e 18 30
e 18 31
e 18 34
e 18 35
e 18 36
e 18 37
e 18 38
e 18 39
e 18 40
e 18 41
e 18 42
e 18 44
e 18 45
e 18 49
e 18 52
e 18 53
e 18 54
e 18 55
e 18 56
e 18 57
e 18 58
e 18 59
e 18 60
e 18 61
e 18 63
e 18 65
e 18 66
e 18 67
e 18 68
e 18 69
e 18 70
e 18 71
e 18 73
e 18 74
e 18 76
e 18 79
e 18 80
e 18 81
e 18 84
e 18 86
e 18 89
e 18 90
e 18 94
e 18 97
e 18 98
e 18 100
e 19 20
e 19 21
e 19 22
e 19 26
e 19 27
e 19 29
e 19 30
e 19 31
e 19 35
e 19 37
e 19 38
e 19 39
e 19 40
e 19 42
e 19 43
e 19 44
e 19 45
e 19 47
e 19 50
e 19 51
e 19 54
e 19 56
e 19 57
e 19 59
e 19 61
e 19 65
e 19 66
e 19 67
e 19 69
e 19 71
e 19 72
e 19 73
e 19 74
e 19 75
e 19 76
e 19 77
e 19 78
e 19 79
e 19 80
e 19 81
e 19 82
e 19 83
e 19 85
e 19 86
e 19 87
e 19 89
e 19 91
e 19 93
e 19 94
e 19 95
e 19 98
e 19 99
e 20 22
e 20 23
e 20 25
e 20 26
e 20 27
e 20 28
e 20 30
e 20 31
e 20 32
e 20 33
e 20 34
e 20 36
e 20 37
e 20 38
e 20 39
e 20 40
e 20 41
e 20 42
e 20 43
e 20 44
e 20 45
e 20 47
e 20 49
e 20 50
e 20 51
e 20 52
e 20 53
e 20 54
e 20 55
e 20 57
e 20 58
e 20 61
e 20 62
e 20 63
e 20 64
e 20 66
e 20 69
e 20 71
e 20 74
e 20 75
e 20 76
e 20 81
e 20 82
e 20 83
e 20 85
e 20 86
e 20 88
e 20 90
e 20 91
e 20 92
e 20 95
e 20 96
e 20 98
e 20 100
e 21 23
e 21 25
e 21 26
e 21 27
e 21 29
e 21 31
e 21 32
e 21 34
e 21 35
e 21 36
e 21 37
e 21 38
e 21 39
e 21 40
e 21 41
e 21 42
e 21 43
e 21 46
e 21 47
e 21 48
e 21 49
e 21 51
e 21 52
e 21 54
e 21 55
e 21 56
e 21 58
e 21 59
e 21 60
e 21 62
e 21 63
e 21 64
e 21 67
e 21 68
e 21 69
e 21 70
e 21 71
e 21 72
e 21 73
e 21 76
e 21 77
e 21 78
e 21 79
e 21 80
e 21 81
e 21 82
e 21 83
e 21 85
e 21 86
e 21 88
e 21 89
e 21 94
e 21 96
e 21 97
e 21 99
e 22 23
e 22 25
e 22 28
e 22 31
e 22 33
e 22 36
e 22 37
e 22 38
e 22 39
e 22 41
e 22 44
e 22 45
e 22 46
e 22 47
e 22 49
e 22 50
e 22 54
e 22 56
e 22 57
e 22 61
e 22 62
e 22 63
e 22 64
e 22 66
e 22 68
e 22 70
e 22 73
e 22 74
e 22 75
e 22 76
e 22 80
e 22 81
e 22 82
e 22 89
e 22 90
e 22 92
e 22 93
e 22 98
e 22 100
e 23 27
e 23 28
e 23 31
e 23 32
e 23 33
e 23 34
e 23 36
e 23 37
e 23 40
e 23 41
e 23 44
e 23 45
e 23 46
e 23 47
e 23 48
e 23 53
e 23 55
e 23 56
e 23 57
e 23 58
e 23 59
e 23 60
e 23 61
e 23 63
e 23 64
e 23 65
e 23 66
e 23 67
e 23 68
e 23 69
e 23 70
e 23 72
e 23 74
e 23 76
e 23 77
e 23 79
e 23 81
e 23 82
e 23 84
e 23 85
e 23 86
e 23 88
e 23 92
e 23 96
e 23 97
e 23 99
e 23 100
e 24 26
e 24 27
e 24 29
e 24 32
e 24 33
e 24 34
e 24 36
e 24 37
e 24 38
e 24 39
e 24 40
e 24 41
e 24 43
e 24 44
e 24 45
e 24 47
e 24 48
e 24 50
e 24 51
e 24 56
e 24 57
e 24 62
e 24 64
e 24 66
e 24 68
e 24 69
e 24 70
e 24 71
e 24 78
e 24 79
e 24 83
e 24 84
e 24 85
e 24 86
e 24 88
e 24 89
e 24 91
e 24 92
e 24 99
e 24 100
e 25 27
e 25 28
e 25 29
e 25 30
e 25 31
e 25 32
e 25 33
e 25 37
e 25 38
e 25 39
e 25 41
e 25 42
e 25 43
e 25 45
e 25 47
e 25 50
e 25 51
e 25 52
e 25 53
e 25 54
e 25 55
e 25 56
e 25 61
e 25 62
e 25 64
e 25 65
e 25 66
e 25 67
e 25 74
e 25 77
e 25 78
e 25 79
e 25 81
e 25 82
e 25 83
e 25 86
e 25 87
e 25 90
e 25 92
e 25 94
e 25 96
e 25 99
e 26 27
e 26 30
e 26 32
e 26 33
e 26 35
e 26 36
e 26 37
e 26 38
e 26 42
e 26 45
e 26 46
e 26 48
e 26 49
e 26 50
e 26 52
e 26 53
e 26 55
e 26 56
e 26 57
e 26 60
e 26 61
e 26 62
e 26 65
e 26 67
e 26 70
e 26 71
e 26 72
e 26 73
e 26 74
e 26 75
e 26 78
e 26 79
e 26 83
e 26 84
e 26 85
e 26 86
e 26 91
e 26 93
e 26 97
e 26 98
e 27 28
e 27 30
e 27 31
e 27 33
e 27 36
e 27 37
e 27 40
e 27 41
e 27 42
e 27 45
e 27 50
e 27 51
e 27 52
e 27 54
e 27 55
e 27 62
e 27 65
e 27 66
e 27 70
e 27 73
e 27 74
e 27 75
e 27 76
e 27 80
e 27 82
e 27 85
e 27 88
e 27 89
e 27 90
e 27 94
e 27 96
e 27 98
e 27 100
e 28 29
e 28 31
e 28 32
e 28 33
e 28 35
e 28 36
e 28 37
e 28 38
e 28 40
e 28 41
e 28 42
e 28 44
e 28 47
e 28 48
e 28 49
e 28 50
e 28 51
e 28 52
e 28 54
e 28 55
e 28 56
e 28 58
e 28 59
e 28 60
e 28 63
e 28 66
e 28 67
e 28 70
e 28 73
e 28 74
e 28 75
e 28 77
e 28 82
e 28 83
e 28 84
e 28 85
e 28 86
e 28 88
e 28 90
e 28 91
e 28 92
e 28 93
e 28 94
e 28 95
e 28 96
e 28 97
e 29 30
e 29 31
e 29 32
e 29 33
e 29 34
e 29 35
e 29 36
e 29 37
e 29 40
e 29 41
e 29 44
e 29 45
e 29 46
e 29 47
e 29 48
e 29 52
e 29 53
e 29 55
e 29 59
e 29 61
e 29 65
e 29 69
e 29 71
e 29 72
e 29 74
e 29 75
e 29 76
e 29 77
e 29 78
e 29 80
e 29 81
e 29 82
e 29 83
e 29 84
e 29 85
e 29 88
e 29 89
e 29 90
e 29 92
e 29 93
e 29 94
e 29 95
e 29 97
e 29 98
e 29 100
e 30 31
e 30 35
e 30 36
e 30 38
e 30 41
e 30 43
e 30 44
e 30 47
e 30 48
e 30 50
e 30 54
e 30 55
e 30 60
e 30 61
e 30 62
e 30 65
e 30 66
e 30 68
e 30 69
e 30 70
e 30 72
e 30 73
e 30 74
e 30 75
e 30 76
e 30 77
e 30 83
e 30 86
e 30 87
e 30 88
e 30 92
e 30 96
e 30 100
e 31 32
e 31 33
e 31 34
e 31 35
e 31 36
e 31 39
e 31 41
e 31 45
e 31 46
e 31 49
e 31 51
e 31 53
e 31 54
e 31 55
e 31 56
e 31 58
e 31 59
e 31 60
e 31 61
e 31 63
e 31 65
e 31 68
e 31 70
e 31 71
e 31 72
e 31 73
e 31 75
e 31 76
e 31 78
e 31 79
e 31 83
e 31 84
e 31 85
e 31 86
e 31 87
e 31 89
e 31 90
e 31 91
e 31 92
e 31 93
e 31 94
e 31 96
e 31 97
e 31 98
e 31 100
e 32 33
e 32 37
e 32 39
e 32 42
e 32 45
e 32 48
e 32 49
e 32 50
e 32 51
e 32 52
e 32 55
e 32 56
e 32 57
e 32 58
e 32 64
e 32 65
e 32 67
e 32 68
e 32 72
e 32 73
e 32 74
e 32 75
e 32 76
e 32 78
e 32 83
e 32 84
e 32 85
e 32 87
e 32 92
e 32 95
e 32 96
e 32 97
e 32 99
e 32 100
e 33 34
e 33 36
e 33 39
e 33 40
e 33 47
e 33 48
e 33 49
e 33 50
e 33 51
e 33 52
e 33 53
e 33 55
e 33 56
e 33 57
e 33 59
e 33 60
e 33 63
e 33 64
e 33 65
e 33 66
e 33 70
e 33 71
e 33 72
e 33 75
e 33 76
e 33 77
e 33 79
e 33 80
e 33 81
e 33 82
e 33 84
e 33 85
e 33 87
e 33 88
e 33 90
e 33 91
e 33 93
e 33 94
e 33 97
e 33 98
e 33 99
e 33 100
e 34 36
e 34 37
e 34 38
e 34 41
e 34 43
e 34 44
e 34 45
e 34 46
e 34 48
e 34 49
e 34 50
e 34 53
e 34 57
e 34 58
e 34 59
e 34 60
e 34 63
e 34 64
e 34 65
e 34 66
e 34 67
e 34 72
e 34 73
e 34 76
e 34 80
e 34 82
e 34 83
e 34 84
e 34 85
e 34 86
e 34 88
e 34 89
e 34 90
e 34 91
e 34 92
e 34 93
e 34 95
e 34 96
e 34 97
e 34 98
e 34 100
e 35 36
e 35 38
e 35 41
e 35 42
e 35 43
e 35 44
e 35 46
e 35 47
e 35 48
e 35 50
e 35 53
e 35 54
e 35 56
e 35 57
e 35 59
e 35 61
e 35 62
e 35 63
e 35 64
e 35 65
e 35 67
e 35 69
e 35 71
e 35 72
e 35 73
e 35 74
e 35 75
e 35 77
e 35 78
e 35 79
e 35 80
e 35 83
e 35 84
e 35 87
e 35 90
e 35 91
e 35 94
e 35 95
e 35 98
e 35 99
e 36 37
e 36 38
e 36 39
e 36 41
e 36 42
e 36 44
e 36 45
e 36 47
e 36 48
e 36 49
e 36 57
e 36 59
e 36 60
e 36 61
e 36 64
e 36 67
e 36 69
e 36 70
e 36 71
e 36 72
e 36 77
e 36 78
e 36 80
e 36 82
e 36 83
e 36 84
e 36 86
e 36 88
e 36 89
e 36 94
e 36 95
e 36 96
e 36 97
e 36 98
e 36 100
e 37 43
e 37 45
e 37 46
e 37 49
e 37 52
e 37 53
e 37 57
e 37 59
e 37 60
e 37 61
e 37 63
e 37 64
e 37 65
e 37 67
e 37 68
e 37 69
e 37 70
e 37 71
e 37 73
e 37 74
e 37 75
e 37 76
e 37 77
e 37 80
e 37 83
e 37 85
e 37 87
e 37 88
e 37 89
e 37 90
e 37 96
e 37 97
e 37 99
e 37 100
e 38 40
e 38 41
e 38 42
e 38 46
e 38 47
e 38 50
e 38 60
e 38 62
e 38 64
e 38 65
e 38 66
e 38 68
e 38 69
e 38 70
e 38 71
e 38 72
e 38 73
e 38 74
e 38 77
e 38 78
e 38 79
e 38 80
e 38 81
e 38 82
e 38 85
e 38 87
e 38 88
e 38 89
e 38 90
e 38 91
e 38 93
e 38 95
e 38 96
e 38 98
e 38 99
e 39 44
e 39 45
e 39 46
e 39 47
e 39 50
e 39 51
e 39 52
e 39 55
e 39 56
e 39 57
e 39 58
e 39 60
e 39 61
e 39 63
e 39 64
e 39 65
e 39 66
e 39 68
e 39 69
e 39 71
e 39 73
e 39 74
e 39 75
e 39 76
e 39 79
e 39 80
e 39 81
e 39 82
e 39 83
e 39 84
e 39 86
e 39 87
e 39 88
e 39 90
e 39 92
e 39 93
e 39 95
e 39 97
e 39 100
e 40 41
e 40 43
e 40 44
e 40 45
e 40 47
e 40 48
e 40 49
e 40 53
e 40 54
e 40 55
e 40 56
e 40 58
e 40 62
e 40 63
e 40 64
e 40 65
e 40 67
e 40 68
e 40 69
e 40 72
e 40 73
e 40 77
e 40 80
e 40 82
e 40 84
e 40 85
e 40 87
e 40 88
e 40 90
e 40 91
e 40 92
e 40 94
e 40 95
e 40 98
e 40 99
e 41 44
e 41 46
e 41 48
e 41 49
e 41 50
e 41 51
e 41 55
e 41 57
e 41 59
e 41 61
e 41 63
e 41 66
e 41 67
e 41 70
e 41 74
e 41 75
e 41 77
e 41 78
e 41 82
e 41 83
e 41 85
e 41 86
e 41 87
e 41 88
e 41 90
e 41 93
e 41 94
e 41 96
e 41 97
e 41 98
e 41 99
e 42 43
e 42 46
e 42 47
e 42 49
e 42 51
e 42 54
e 42 55
e 42 56
e 42 57
e 42 58
e 42 59
e 42 60
e 42 61
e 42 62
e 42 63
e 42 66
e 42 67
e 42 68
e 42 69
e 42 70
e 42 71
e 42 73
e 42 74
e 42 77
e 42 78
e 42 79
e 42 81
e 42 82
e 42 83
e 42 85
e 42 87
e 42 89
e 42 90
e 42 91
e 42 92
e 42 93
e 42 94
e 42 95
e 42 96
e 42 97
e 42 99
e 43 44
e 43 45
e 43 47
e 43 48
e 43 49
e 43 51
e 43 52
e 43 55
e 43 58
e 43 60
e 43 61
e 43 62
e 43 63
e 43 65
e 43 68
e 43 69
e 43 71
e 43 72
e 43 73
e 43 74
e 43 75
e 43 76
e 43 77
e 43 78
e 43 80
e 43 81
e 43 82
e 43 85
e 43 89
e 43 92
e 43 94
e 43 95
e 43 96
e 43 97
e 43 98
e 43 99
e 44 48
e 44 49
e 44 50
e 44 51
e 44 53
e 44 54
e 44 55
e 44 56
e 44 59
e 44 61
e 44 62
e 44 63
e 44 66
e 44 67
e 44 68
e 44 70
e 44 71
e 44 73
e 44 74
e 44 75
e 44 76
e 44 77
e 44 79
e 44 80
e 44 81
e 44 82
e 44 85
e 44 87
e 44 88
e 44 89
e 44 91
e 44 95
e 44 96
e 45 46
e 45 48
e 45 49
e 45 50
e 45 52
e 45 54
e 45 56
e 45 57
e 45 59
e 45 62
e 45 63
e 45 64
e 45 65
e 45 66
e 45 69
e 45 70
e 45 71
e 45 79
e 45 80
e 45 86
e 45 88
e 45 89
e 45 90
e 45 91
e 45 92
e 45 93
e 45 95
e 45 96
e 45 97
e 45 99
e 45 100
e 46 47
e 46 48
e 46 49
e 46 50
e 46 51
e 46 52
e 46 53
e 46 55
e 46 56
e 46 57
e 46 58
e 46 59
e 46 61
e 46 62
e 46 64
e 46 66
e 46 68
e 46 69
e 46 70
e 46 71
e 46 72
e 46 73
e 46 79
e 46 80
e 46 81
e 46 82
e 46 83
e 46 84
e 46 85
e 46 86
e 46 87
e 46 91
e 46 92
e 46 93
e 46 96
e 46 97
e 46 100
e 47 50
e 47 51
e 47 53
e 47 55
e 47 56
e 47 58
e 47 59
e 47 61
e 47 63
e 47 64
e 47 66
e 47 67
e 47 68
e 47 69
e 47 70
e 47 72
e 47 73
e 47 74
e 47 78
e 47 79
e 47 82
e 47 85
e 47 87
e 47 88
e 47 91
e 47 93
e 47 95
e 47 96
e 47 97
e 47 100
e 48 49
e 48 50
e 48 51
e 48 53
e 48 55
e 48 59
e 48 62
e 48 63
e 48 64
e 48 66
e 48 67
e 48 69
e 48 70
e 48 71
e 48 72
e 48 73
e 48 75
e 48 78
e 48 80
e 48 82
e 48 86
e 48 88
e 48 90
e 48 91
e 48 94
e 48 95
e 48 96
e 48 97
e 48 98
e 49 50
e 49 53
e 49 54
e 49 55
e 49 57
e 49 58
e 49 59
e 49 60
e 49 61
e 49 62
e 49 66
e 49 68
e 49 70
e 49 72
e 49 74
e 49 76
e 49 77
e 49 78
e 49 79
e 49 83
e 49 84
e 49 85
e 49 86
e 49 88
e 49 89
e 49 92
e 49 93
e 49 95
e 49 98
e 49 99
e 50 52
e 50 53
e 50 54
e 50 57
e 50 58
e 50 59
e 50 62
e 50 63
e 50 64
e 50 65
e 50 66
e 50 67
e 50 68
e 50 69
e 50 74
e 50 76
e 50 85
e 50 86
e 50 87
e 50 90
e 50 91
e 50 92
e 50 93
e 50 94
e 50 98
e 50 100
e 51 52
e 51 55
e 51 56
e 51 58
e 51 59
e 51 61
e 51 62
e 51 69
e 51 70
e 51 74
e 51 75
e 51 76
e 51 78
e 51 79
e 51 80
e 51 81
e 51 83
e 51 84
e 51 85
e 51 86
e 51 88
e 51 90
e 51 91
e 51 93
e 51 95
e 51 96
e 51 97
e 51 98
e 51 99
e 52 53
e 52 58
e 52 59
e 52 62
e 52 63
e 52 68
e 52 69
e 52 70
e 52 72
e 52 75
e 52 76
e 52 77
e 52 80
e 52 83
e 52 84
e 52 86
e 52 89
e 52 92
e 52 94
e 52 95
e 52 96
e 52 97
e 52 98
e 52 99
e 53 54
e 53 55
e 53 57
e 53 60
e 53 61
e 53 62
e 53 63
e 53 64
e 53 65
e 53 66
e 53 67
e 53 70
e 53 71
e 53 74
e 53 76
e 53 77
e 53 78
e 53 80
e 53 82
e 53 84
e 53 86
e 53 87
e 53 88
e 53 90
e 53 91
e 53 92
e 53 94
e 53 96
e 53 98
e 53 99
e 53 100
e 54 57
e 54 58
e 54 60
e 54 61
e 54 63
e 54 64
e 54 65
e 54 68
e 54 69
e 54 70
e 54 72
e 54 73
e 54 74
e 54 77
e 54 82
e 54 83
e 54 85
e 54 87
e 54 88
e 54 89
e 54 90
e 54 91
e 54 92
e 54 96
e 54 98
e 54 99
e 54 100
e 55 57
e 55 60
e 55 61
e 55 63
e 55 67
e 55 68
e 55 70
e 55 71
e 55 72
e 55 74
e 55 75
e 55 77
e 55 78
e 55 80
e 55 85
e 55 86
e 55 87
e 55 88
e 55 91
e 55 92
e 55 94
e 55 95
e 55 96
e 55 97
e 55 98
e 55 99
e 56 57
e 56 58
e 56 59
e 56 60
e 56 62
e 56 64
e 56 67
e 56 71
e 56 72
e 56 74
e 56 76
e 56 77
e 56 78
e 56 85
e 56 86
e 56 88
e 56 89
e 56 90
e 56 91
e 56 92
e 56 93
e 56 95
e 56 96
e 56 97
e 56 99
e 56 100
e 57 60
e 57 61
e 57 62
e 57 63
e 57 64
e 57 65
e 57 66
e 57 68
e 57 69
e 57 72
e 57 73
e 57 76
e 57 77
e 57 79
e 57 80
e 57 81
e 57 82
e 57 83
e 57 85
e 57 88
e 57 89
e 57 91
e 57 92
e 57 93
e 57 94
e 57 95
e 57 96
e 57 97
e 57 99
e 57 100
e 58 59
e 58 61
e 58 62
e 58 65
e 58 70
e 58 71
e 58 72
e 58 73
e 58 74
e 58 75
e 58 76
e 58 77
e 58 78
e 58 79
e 58 82
e 58 83
e 58 88
e 58 94
e 58 95
e 58 98
e 58 100
e 59 60
e 59 62
e 59 63
e 59 66
e 59 68
e 59 69
e 59 70
e 59 71
e 59 72
e 59 73
e 59 74
e 59 77
e 59 78
e 59 82
e 59 84
e 59 85
e 59 87
e 59 88
e 59 90
e 59 91
e 59 93
e 59 95
e 59 96
e 59 97
e 59 99
e 59 100
e 60 61
e 60 62
e 60 63
e 60 65
e 60 66
e 60 67
e 60 69
e 60 73
e 60 75
e 60 80
e 60 83
e 60 85
e 60 87
e 60 90
e 60 91
e 60 93
e 60 95
e 60 96
e 60 97
e 60 99
e 61 64
e 61 66
e 61 67
e 61 68
e 61 69
e 61 70
e 61 71
e 61 72
e 61 73
e 61 74
e 61 75
e 61 76
e 61 79
e 61 80
e 61 83
e 61 84
e 61 85
e 61 87
e 61 88
e 61 93
e 61 94
e 61 95
e 61 97
e 61 98
e 61 99
e 62 67
e 62 69
e 62 73
e 62 74
e 62 75
e 62 76
e 62 77
e 62 78
e 62 79
e 62 83
e 62 85
e 62 87
e 62 88
e 62 89
e 62 93
e 62 96
e 62 97
e 62 98
e 63 65
e 63 66
e 63 67
e 63 68
e 63 71
e 63 74
e 63 75
e 63 76
e 63 77
e 63 78
e 63 79
e 63 80
e 63 85
e 63 86
e 63 88
e 63 89
e 63 92
e 63 93
e 63 94
e 63 96
e 63 97
e 63 99
e 63 100
e 64 71
e 64 74
e 64 75
e 64 77
e 64 78
e 64 79
e 64 80
e 64 83
e 64 84
e 64 85
e 64 86
e 64 88
e 64 90
e 64 96
e 64 97
e 64 100
e 65 67
e 65 68
e 65 69
e 65 70
e 65 71
e 65 72
e 65 73
e 65 75
e 65 76
e 65 77
e 65 80
e 65 81
e 65 84
e 65 85
e 65 87
e 65 88
e 65 89
e 65 91
e 65 92
e 65 96
e 65 97
e 65 98
e 65 100
e 66 67
e 66 68
e 66 69
e 66 70
e 66 71
e 66 72
e 66 73
e 66 74
e 66 75
e 66 76
e 66 83
e 66 86
e 66 87
e 66 88
e 66 90
e 66 91
e 66 93
e 66 94
e 66 95
e 66 96
e 66 97
e 66 98
e 66 99
e 66 100
e 67 68
e 67 69
e 67 70
e 67 72
e 67 73
e 67 75
e 67 76
e 67 77
e 67 78
e 67 79
e 67 80
e 67 81
e 67 82
e 67 83
e 67 84
e 67 85
e 67 86
e 67 87
e 67 88
e 67 89
e 67 90
e 67 93
e 67 94
e 67 95
e 67 96
e 67 97
e 67 100
e 68 69
e 68 70
e 68 71
e 68 76
e 68 77
e 68 78
e 68 80
e 68 82
e 68 83
e 68 86
e 68 87
e 68 88
e 68 90
e 68 91
e 68 93
e 68 95
e 68 96
e 68 97
e 68 98
e 68 99
e 69 70
e 69 71
e 69 72
e 69 74
e 69 76
e 69 77
e 69 78
e 69 80
e 69 83
e 69 84
e 69 87
e 69 88
e 69 91
e 69 92
e 69 95
e 69 96
e 70 72
e 70 73
e 70 74
e 70 75
e 70 76
e 70 82
e 70 83
e 70 88
e 70 89
e 70 90
e 70 96
e 70 97
e 71 72
e 71 73
e 71 74
e 71 76
e 71 77
e 71 83
e 71 84
e 71 85
e 71 88
e 71 91
e 71 93
e 71 94
e 71 95
e 71 97
e 71 98
e 71 100
e 72 73
e 72 76
e 72 77
e 72 79
e 72 80
e 72 84
e 72 87
e 72 88
e 72 89
e 72 90
e 72 91
e 72 92
e 72 94
e 72 95
e 72 96
e 72 97
e 72 100
e 73 74
e 73 77
e 73 78
e 73 80
e 73 82
e 73 83
e 73 84
e 73 86
e 73 89
e 73 90
e 73 91
e 73 93
e 73 94
e 73 95
e 73 96
e 73 97
e 74 81
e 74 83
e 74 84
e 74 85
e 74 86
e 74 87
e 74 88
e 74 89
e 74 90
e 74 91
e 74 92
e 74 93
e 74 94
e 74 95
e 74 96
e 74 97
e 74 98
e 75 76
e 75 77
e 75 78
e 75 80
e 75 81
e 75 84
e 75 86
e 75 87
e 75 90
e 75 91
e 75 93
e 75 96
e 75 98
e 75 99
e 75 100
e 76 80
e 76 81
e 76 82
e 76 83
e 76 84
e 76 91
e 76 93
e 76 94
e 76 95
e 76 96
e 76 99
e 76 100
e 77 79
e 77 80
e 77 81
e 77 83
e 77 84
e 77 86
e 77 87
e 77 88
e 77 91
e 77 92
e 77 93
e 77 94
e 77 95
e 77 96
e 77 98
e 77 100
e 78 79
e 78 80
e 78 84
e 78 85
e 78 88
e 78 89
e 78 90
e 78 91
e 78 92
e 78 94
e 78 95
e 78 97
e 78 98
e 79 81
e 79 83
e 79 84
e 79 86
e 79 88
e 79 89
e 79 91
e 79 93
e 79 94
e 79 97
e 79 99
e 80 81
e 80 83
e 80 84
e 80 87
e 80 88
e 80 89
e 80 91
e 80 92
e 80 93
e 80 95
e 80 96
e 80 98
e 80 99
e 81 82
e 81 84
e 81 92
e 81 93
e 81 95
e 81 96
e 81 97
e 82 83
e 82 85
e 82 86
e 82 87
e 82 88
e 82 90
e 82 91
e 82 98
e 82 99
e 83 85
e 83 86
e 83 89
e 83 92
e 83 93
e 83 94
e 83 95
e 83 96
e 83 98
e 83 100
e 84 85
e 84 86
e 84 87
e 84 88
e 84 90
e 84 91
e 84 92
e 84 93
e 84 94
e 84 96
e 84 99
e 84 100
e 85 86
e 85 87
e 85 88
e 85 90
e 85 91
e 85 94
e 85 96
e 85 97
e 85 100
e 86 88
e 86 89
e 86 93
e 86 95
e 86 96
e 87 88
e 87 89
e 87 90
e 87 92
e 87 94
e 87 96
e 88 89
e 88 91
e 88 94
e 88 95
e 88 96
e 88 98
e 89 90
e 89 91
e 89 93
e 89 94
e 89 97
e 89 98
e 89 99
e 89 100
e 90 91
e 90 92
e 90 95
e 90 97
e 90 99
e 91 92
e 91 95
e 91 97
e 91 99
e 91 100
e 92 94
e 92 95
e 92 96
e 92 97
e 92 98
e 92 100
e 93 95
e 93 96
e 94 95
e 94 96
e 94 97
e 94 99
e 94 100
e 95 96
e 95 97
e 95 98
e 95 99
e 96 98
e 96 99
e 98 99
e 98 100
